;; ===================== PROJECTED CANON (QE) =====================
;; Each clause below is entailed by Proj = ∃W.F over the canonical vocabulary.
;; Units appear first for clarity; OR-clauses (SAT-filtered) follow.
;; ==================================================================

;; Numeric unit constraints (entailed)
(assert (>= patient_age_value_recorded_now_in_days 18250.0))
(assert (<= patient_age_value_recorded_now_in_days 29159.0))
